
Gurobi 9.5.2 (mac64[arm]) logging started Fri Apr 28 12:58:46 2023

Set parameter LogFile to value "Java/output/pure_mip_2_machine/scenario_seed_2_nJob_20_machineCount_2/mip_increment_1/log.txt"
Gurobi Optimizer version 9.5.2 build v9.5.2rc0 (mac64[arm])
Thread count: 8 physical cores, 8 logical processors, using up to 8 threads
Optimize a model with 1128 rows, 9976 columns and 112143 nonzeros
Model fingerprint: 0x6380c465
Variable types: 0 continuous, 9976 integer (9976 binary)
Coefficient statistics:
  Matrix range     [1e+00, 1e+02]
  Objective range  [4e+00, 1e+06]
  Bounds range     [1e+00, 1e+00]
  RHS range        [1e+00, 1e+00]
Presolve removed 142 rows and 2332 columns
Presolve time: 0.13s
Presolved: 986 rows, 7644 columns, 86933 nonzeros
Variable types: 0 continuous, 7644 integer (7644 binary)

Root relaxation: objective 2.037929e+05, 5805 iterations, 0.27 seconds (0.60 work units)

    Nodes    |    Current Node    |     Objective Bounds      |     Work
 Expl Unexpl |  Obj  Depth IntInf | Incumbent    BestBd   Gap | It/Node Time

     0     0 203792.882    0  118          - 203792.882      -     -    0s
     0     0 204331.963    0  235          - 204331.963      -     -    0s
H    0     0                    321058.00000 204490.617  36.3%     -    0s
     0     0 204490.617    0  195 321058.000 204490.617  36.3%     -    1s
     0     0 205600.121    0  255 321058.000 205600.121  36.0%     -    1s
H    0     0                    279322.00000 205600.121  26.4%     -    1s
     0     0 205702.058    0  270 279322.000 205702.058  26.4%     -    1s
     0     0 205708.044    0  256 279322.000 205708.044  26.4%     -    1s
     0     0 205709.881    0  257 279322.000 205709.881  26.4%     -    1s
     0     0 205709.881    0  259 279322.000 205709.881  26.4%     -    1s
     0     0 206130.519    0  287 279322.000 206130.519  26.2%     -    1s
H    0     0                    263616.00000 206130.519  21.8%     -    1s
H    0     0                    238836.00000 206130.519  13.7%     -    1s
     0     0 206217.446    0  246 238836.000 206217.446  13.7%     -    1s
     0     0 206219.253    0  249 238836.000 206219.253  13.7%     -    1s
     0     0 206219.253    0  248 238836.000 206219.253  13.7%     -    1s
     0     0 206823.590    0  290 238836.000 206823.590  13.4%     -    2s
H    0     0                    238072.00000 206823.590  13.1%     -    2s
     0     0 206906.131    0  291 238072.000 206906.131  13.1%     -    2s
     0     0 206933.556    0  302 238072.000 206933.556  13.1%     -    2s
     0     0 206940.262    0  309 238072.000 206940.262  13.1%     -    2s
     0     0 206942.147    0  307 238072.000 206942.147  13.1%     -    2s
     0     0 206942.207    0  311 238072.000 206942.207  13.1%     -    2s
     0     0 207550.385    0  315 238072.000 207550.385  12.8%     -    2s
     0     0 207812.360    0  329 238072.000 207812.360  12.7%     -    2s
     0     0 207844.189    0  334 238072.000 207844.189  12.7%     -    2s
     0     0 207851.615    0  323 238072.000 207851.615  12.7%     -    2s
     0     0 207861.645    0  334 238072.000 207861.645  12.7%     -    2s
     0     0 207862.631    0  328 238072.000 207862.631  12.7%     -    2s
     0     0 208203.010    0  328 238072.000 208203.010  12.5%     -    3s
     0     0 208203.010    0  136 238072.000 208203.010  12.5%     -    3s
H    0     0                    238068.00000 208203.010  12.5%     -    3s
H    0     0                    235954.00000 208203.010  11.8%     -    3s
H    0     0                    235021.00000 208203.010  11.4%     -    3s
     0     0 208203.010    0  252 235021.000 208203.010  11.4%     -    3s
H    0     0                    234390.00000 208203.010  11.2%     -    3s
     0     0 208203.010    0  289 234390.000 208203.010  11.2%     -    4s
     0     0 208287.487    0  320 234390.000 208287.487  11.1%     -    4s
     0     0 208323.604    0  322 234390.000 208323.604  11.1%     -    4s
     0     0 208323.604    0  320 234390.000 208323.604  11.1%     -    4s
     0     0 208838.605    0  300 234390.000 208838.605  10.9%     -    4s
H    0     0                    234099.00000 208838.605  10.8%     -    4s
     0     0 208846.550    0  323 234099.000 208846.550  10.8%     -    4s
     0     0 208846.550    0  315 234099.000 208846.550  10.8%     -    4s
     0     0 210141.967    0  348 234099.000 210141.967  10.2%     -    4s
H    0     0                    234063.00000 210141.967  10.2%     -    4s
     0     0 210355.312    0  333 234063.000 210355.312  10.1%     -    4s
     0     0 210412.572    0  287 234063.000 210412.572  10.1%     -    4s
     0     0 210424.863    0  287 234063.000 210424.863  10.1%     -    4s
     0     0 210427.201    0  300 234063.000 210427.201  10.1%     -    5s
     0     0 210811.095    0  330 234063.000 210811.095  9.93%     -    5s
H    0     0                    233628.00000 210811.095  9.77%     -    5s
     0     0 210884.210    0  310 233628.000 210884.210  9.74%     -    5s
     0     0 210962.187    0  388 233628.000 210962.187  9.70%     -    5s
     0     0 210970.919    0  378 233628.000 210970.919  9.70%     -    5s
     0     0 210974.312    0  383 233628.000 210974.312  9.70%     -    5s
     0     0 211200.838    0  362 233628.000 211200.838  9.60%     -    5s
H    0     0                    228256.00000 211200.838  7.47%     -    5s
     0     0 211258.004    0  344 228256.000 211258.004  7.45%     -    5s
     0     0 211272.120    0  376 228256.000 211272.120  7.44%     -    5s
     0     0 211274.564    0  375 228256.000 211274.564  7.44%     -    5s
     0     0 211421.748    0  311 228256.000 211421.748  7.38%     -    5s
     0     0 211500.390    0  319 228256.000 211500.390  7.34%     -    5s
     0     0 211502.362    0  324 228256.000 211502.362  7.34%     -    5s
     0     0 211557.515    0  308 228256.000 211557.515  7.32%     -    6s
H    0     0                    213891.00000 211557.515  1.09%     -    6s
     0     0 211564.500    0   79 213891.000 211564.500  1.09%     -    6s
     0     0 211564.500    0   80 213891.000 211564.500  1.09%     -    6s
     0     0 211564.500    0   60 213891.000 211564.500  1.09%     -    6s
     0     0 211564.500    0  150 213891.000 211564.500  1.09%     -    6s
     0     0 211564.500    0  208 213891.000 211564.500  1.09%     -    6s
     0     0 211564.500    0  211 213891.000 211564.500  1.09%     -    6s
     0     0 211564.500    0  206 213891.000 211564.500  1.09%     -    6s
     0     0 211564.500    0  248 213891.000 211564.500  1.09%     -    6s
     0     0 211564.500    0   76 213891.000 211564.500  1.09%     -    6s
     0     0 211564.500    0   80 213891.000 211564.500  1.09%     -    6s
     0     0 211564.500    0   63 213891.000 211564.500  1.09%     -    6s
     0     0 211579.269    0  204 213891.000 211579.269  1.08%     -    6s
     0     0 211579.269    0  200 213891.000 211579.269  1.08%     -    6s
H    0     0                    212494.00000 211595.197  0.42%     -    6s
     0     0 211595.197    0  151 212494.000 211595.197  0.42%     -    7s
H    0     0                    212003.00000 211595.197  0.19%     -    7s
     0     0 211595.197    0  165 212003.000 211595.197  0.19%     -    7s
     0     0 211595.197    0  181 212003.000 211595.197  0.19%     -    7s
     0     0 211595.197    0  200 212003.000 211595.197  0.19%     -    7s
     0     0 211595.197    0   96 212003.000 211595.197  0.19%     -    7s
     0     0 211595.197    0   94 212003.000 211595.197  0.19%     -    7s
     0     0 211602.000    0  101 212003.000 211602.000  0.19%     -    7s
     0     0 211602.000    0   57 212003.000 211602.000  0.19%     -    7s
     0     0 211612.500    0  101 212003.000 211612.500  0.18%     -    7s
     0     0 212003.000    0   40 212003.000 212003.000  0.00%     -    7s

Cutting planes:
  Gomory: 1
  Clique: 4
  MIR: 11
  StrongCG: 4
  GUB cover: 23
  Mod-K: 1
  RLT: 1

Explored 1 nodes (57214 simplex iterations) in 7.32 seconds (13.68 work units)
Thread count was 8 (of 8 available processors)

Solution count 10: 212003 212003 212494 ... 234390

Optimal solution found (tolerance 1.00e-04)
Best objective 2.120030000000e+05, best bound 2.120030000000e+05, gap 0.0000%
